certificates/rado_a14_c230_N54.drat
-48 -53 -54 0
16 17 48 0
9 19 -53 0
-53 -54 0
d -48 -53 -54 0
17 53 0
-19 -54 0
-54 0
19 -17 0
-16 -17 0
-17 0
9 0
25 0
53 0
46 0
-19 0
18 0
27 0
11 0
-3 0
-31 0
-40 0
-47 0
-24 0
-49 0
-5 0
-33 0
39 0
23 0
48 0
32 0
4 0
16 0
41 0
13 0
-45 0
-1 0
-29 0
-14 0
-42 0
-26 0
-10 0
-38 0
-22 0
-15 0
-52 0
-12 0
-21 0
-35 0
-7 0
37 0
0
